set V := 1 2 3 4 5 6 7 8 9;
set E := e1 e2 e3 e4 e5 e6 e7 e8;

set X[e1] := 2;
set X[e2] := 3;
set X[e3] := 4;
set X[e4] := 1 2 3 4;
set X[e5] := 6 7 8 9;
set X[e6] := 7;
set X[e7] := 8;
set X[e8] := 9;

set Y[e1] := 1;
set Y[e2] := 1;
set Y[e3] := 1;
set Y[e4] := 5;
set Y[e5] := 5;
set Y[e6] := 6;
set Y[e7] := 6;
set Y[e8] := 6;


param invertible := 
e1 1
e2 1
e3 1
e4 1
e5 1
e6 1
e7 1
e8 1;

